p cnf 196 449
-2 0
4 0
-5 0
7 0
-10 0
15 0
-15 16 17 0
15 -16 17 0
15 16 -17 0
-16 17 18 0
16 -17 18 0
16 17 -18 0
18 0
-18 19 20 0
18 -19 20 0
18 19 -20 0
-19 20 21 0
19 -20 21 0
19 20 -21 0
-20 21 22 0
20 -21 22 0
20 21 -22 0
-21 22 23 0
21 -22 23 0
21 22 -23 0
-22 23 24 0
22 -23 24 0
22 23 -24 0
-24 0
-24 25 26 0
24 -25 26 0
24 25 -26 0
-25 26 27 0
25 -26 27 0
25 26 -27 0
-26 27 28 0
26 -27 28 0
26 27 -28 0
28 0
-28 29 30 0
28 -29 30 0
28 29 -30 0
30 0
-30 31 32 0
30 -31 32 0
30 31 -32 0
-31 32 33 0
31 -32 33 0
31 32 -33 0
-33 0
-33 34 35 0
33 -34 35 0
33 34 -35 0
-34 35 36 0
34 -35 36 0
34 35 -36 0
-35 36 37 0
35 -36 37 0
35 36 -37 0
-36 37 38 0
36 -37 38 0
36 37 -38 0
-37 38 39 0
37 -38 39 0
37 38 -39 0
-38 39 40 0
38 -39 40 0
38 39 -40 0
-39 40 41 0
39 -40 41 0
39 40 -41 0
-40 41 42 0
40 -41 42 0
40 41 -42 0
-41 42 43 0
41 -42 43 0
41 42 -43 0
-42 43 44 0
42 -43 44 0
42 43 -44 0
-43 44 45 0
43 -44 45 0
43 44 -45 0
-44 45 46 0
44 -45 46 0
44 45 -46 0
46 0
47 0
-47 48 49 0
47 -48 49 0
47 48 -49 0
-48 49 50 0
48 -49 50 0
48 49 -50 0
-49 50 51 0
49 -50 51 0
49 50 -51 0
51 0
-51 52 53 0
51 -52 53 0
51 52 -53 0
-52 53 54 0
52 -53 54 0
52 53 -54 0
-53 54 55 0
53 -54 55 0
53 54 -55 0
-54 55 56 0
54 -55 56 0
54 55 -56 0
-55 56 57 0
55 -56 57 0
55 56 -57 0
-57 0
-57 58 59 0
57 -58 59 0
57 58 -59 0
-58 59 60 0
58 -59 60 0
58 59 -60 0
-59 60 61 0
59 -60 61 0
59 60 -61 0
-60 61 62 0
60 -61 62 0
60 61 -62 0
-61 62 63 0
61 -62 63 0
61 62 -63 0
63 0
-63 64 65 0
63 -64 65 0
63 64 -65 0
-64 65 66 0
64 -65 66 0
64 65 -66 0
-66 0
-66 67 68 0
66 -67 68 0
66 67 -68 0
-67 68 69 0
67 -68 69 0
67 68 -69 0
-68 69 70 0
68 -69 70 0
68 69 -70 0
70 0
-70 71 72 0
70 -71 72 0
70 71 -72 0
72 0
-72 73 74 0
72 -73 74 0
72 73 -74 0
-74 0
-74 75 76 0
74 -75 76 0
74 75 -76 0
-75 76 77 0
75 -76 77 0
75 76 -77 0
-76 77 78 0
76 -77 78 0
76 77 -78 0
-77 78 79 0
77 -78 79 0
77 78 -79 0
-78 79 80 0
78 -79 80 0
78 79 -80 0
-79 80 81 0
79 -80 81 0
79 80 -81 0
-80 81 82 0
80 -81 82 0
80 81 -82 0
-81 82 83 0
81 -82 83 0
81 82 -83 0
-82 83 84 0
82 -83 84 0
82 83 -84 0
84 0
-85 0
-85 86 87 0
85 -86 87 0
85 86 -87 0
-86 87 88 0
86 -87 88 0
86 87 -88 0
-87 88 89 0
87 -88 89 0
87 88 -89 0
-88 89 90 0
88 -89 90 0
88 89 -90 0
-90 0
-90 91 92 0
90 -91 92 0
90 91 -92 0
-91 92 93 0
91 -92 93 0
91 92 -93 0
-92 93 94 0
92 -93 94 0
92 93 -94 0
-93 94 95 0
93 -94 95 0
93 94 -95 0
-94 95 96 0
94 -95 96 0
94 95 -96 0
-96 0
-96 97 98 0
96 -97 98 0
96 97 -98 0
-97 98 99 0
97 -98 99 0
97 98 -99 0
-98 99 100 0
98 -99 100 0
98 99 -100 0
-99 100 101 0
99 -100 101 0
99 100 -101 0
-100 101 102 0
100 -101 102 0
100 101 -102 0
-101 102 103 0
101 -102 103 0
101 102 -103 0
-102 103 104 0
102 -103 104 0
102 103 -104 0
-103 104 105 0
103 -104 105 0
103 104 -105 0
-104 105 106 0
104 -105 106 0
104 105 -106 0
-105 106 107 0
105 -106 107 0
105 106 -107 0
-107 0
-108 0
-108 109 110 0
108 -109 110 0
108 109 -110 0
-109 110 111 0
109 -110 111 0
109 110 -111 0
-110 111 112 0
110 -111 112 0
110 111 -112 0
-111 112 113 0
111 -112 113 0
111 112 -113 0
-112 113 114 0
112 -113 114 0
112 113 -114 0
-113 114 115 0
113 -114 115 0
113 114 -115 0
-114 115 116 0
114 -115 116 0
114 115 -116 0
-115 116 117 0
115 -116 117 0
115 116 -117 0
-116 117 118 0
116 -117 118 0
116 117 -118 0
118 0
-118 119 120 0
118 -119 120 0
118 119 -120 0
-119 120 121 0
119 -120 121 0
119 120 -121 0
-120 121 122 0
120 -121 122 0
120 121 -122 0
-121 122 123 0
121 -122 123 0
121 122 -123 0
123 0
-123 124 125 0
123 -124 125 0
123 124 -125 0
-124 125 126 0
124 -125 126 0
124 125 -126 0
-125 126 127 0
125 -126 127 0
125 126 -127 0
-126 127 128 0
126 -127 128 0
126 127 -128 0
-128 0
-128 129 130 0
128 -129 130 0
128 129 -130 0
-129 130 131 0
129 -130 131 0
129 130 -131 0
-130 131 132 0
130 -131 132 0
130 131 -132 0
132 0
-132 133 134 0
132 -133 134 0
132 133 -134 0
-133 134 135 0
133 -134 135 0
133 134 -135 0
-134 135 136 0
134 -135 136 0
134 135 -136 0
-135 136 137 0
135 -136 137 0
135 136 -137 0
-136 137 138 0
136 -137 138 0
136 137 -138 0
-137 138 139 0
137 -138 139 0
137 138 -139 0
-138 139 140 0
138 -139 140 0
138 139 -140 0
-139 140 141 0
139 -140 141 0
139 140 -141 0
-140 141 142 0
140 -141 142 0
140 141 -142 0
-141 142 143 0
141 -142 143 0
141 142 -143 0
-143 0
-143 144 145 0
143 -144 145 0
143 144 -145 0
-144 145 146 0
144 -145 146 0
144 145 -146 0
-145 146 147 0
145 -146 147 0
145 146 -147 0
-146 147 148 0
146 -147 148 0
146 147 -148 0
-147 148 149 0
147 -148 149 0
147 148 -149 0
149 0
-149 150 151 0
149 -150 151 0
149 150 -151 0
151 0
-151 152 153 0
151 -152 153 0
151 152 -153 0
-152 153 154 0
152 -153 154 0
152 153 -154 0
-153 154 155 0
153 -154 155 0
153 154 -155 0
-154 155 156 0
154 -155 156 0
154 155 -156 0
-155 156 157 0
155 -156 157 0
155 156 -157 0
-156 157 158 0
156 -157 158 0
156 157 -158 0
-157 158 159 0
157 -158 159 0
157 158 -159 0
-158 159 160 0
158 -159 160 0
158 159 -160 0
-160 0
-160 161 162 0
160 -161 162 0
160 161 -162 0
-161 162 163 0
161 -162 163 0
161 162 -163 0
-162 163 164 0
162 -163 164 0
162 163 -164 0
-164 0
-164 165 166 0
164 -165 166 0
164 165 -166 0
-165 166 167 0
165 -166 167 0
165 166 -167 0
167 0
-167 168 169 0
167 -168 169 0
167 168 -169 0
-168 169 170 0
168 -169 170 0
168 169 -170 0
-169 170 171 0
169 -170 171 0
169 170 -171 0
-170 171 172 0
170 -171 172 0
170 171 -172 0
-171 172 173 0
171 -172 173 0
171 172 -173 0
-172 173 174 0
172 -173 174 0
172 173 -174 0
-173 174 175 0
173 -174 175 0
173 174 -175 0
-175 0
-175 176 177 0
175 -176 177 0
175 176 -177 0
-176 177 178 0
176 -177 178 0
176 177 -178 0
-177 178 179 0
177 -178 179 0
177 178 -179 0
-178 179 180 0
178 -179 180 0
178 179 -180 0
-179 180 181 0
179 -180 181 0
179 180 -181 0
-180 181 182 0
180 -181 182 0
180 181 -182 0
-181 182 183 0
181 -182 183 0
181 182 -183 0
-184 0
-185 0
187 0
-196 0
